(set-option :produce-models true); benchmark generated from python API
(set-info :status unknown)
(declare-fun _a_1_ () Real)
(declare-fun _a_0_ () Real)
(declare-fun l_1_0_8 () Real)
(declare-fun l_1_0_7 () Real)
(declare-fun l_1_0_5 () Real)
(declare-fun l_1_0_4 () Real)
(declare-fun l_1_0_3 () Real)
(declare-fun l_1_0_13 () Real)
(declare-fun l_1_0_12 () Real)
(declare-fun l_1_0_1 () Real)
(declare-fun l_1_0_9 () Real)
(declare-fun l_1_0_2 () Real)
(declare-fun l_1_0_10 () Real)
(declare-fun l_1_0_6 () Real)
(declare-fun l_1_0_11 () Real)
(declare-fun l_1_0_14 () Real)
(declare-fun l_1_0_15 () Real)
(declare-fun l_1_1_9 () Real)
(declare-fun l_1_1_7 () Real)
(declare-fun l_1_1_6 () Real)
(declare-fun l_1_1_5 () Real)
(declare-fun l_1_1_4 () Real)
(declare-fun l_1_1_3 () Real)
(declare-fun l_1_1_10 () Real)
(declare-fun l_1_1_14 () Real)
(declare-fun l_1_1_15 () Real)
(declare-fun l_1_1_1 () Real)
(declare-fun l_1_1_2 () Real)
(declare-fun l_1_1_11 () Real)
(declare-fun l_1_1_12 () Real)
(declare-fun l_1_1_8 () Real)
(declare-fun l_1_1_13 () Real)
(declare-fun l_1_1_16 () Real)
(declare-fun l_1_1_17 () Real)
(declare-fun l_1_2_9 () Real)
(declare-fun l_1_2_8 () Real)
(declare-fun l_1_2_7 () Real)
(declare-fun l_1_2_6 () Real)
(declare-fun l_1_2_5 () Real)
(declare-fun l_1_2_4 () Real)
(declare-fun l_1_2_3 () Real)
(declare-fun l_1_2_12 () Real)
(declare-fun l_1_2_11 () Real)
(declare-fun l_1_2_17 () Real)
(declare-fun l_1_2_16 () Real)
(declare-fun l_1_2_1 () Real)
(declare-fun l_1_2_2 () Real)
(declare-fun l_1_2_14 () Real)
(declare-fun l_1_2_13 () Real)
(declare-fun l_1_2_10 () Real)
(declare-fun l_1_2_15 () Real)
(declare-fun l_1_2_18 () Real)
(declare-fun l_1_2_19 () Real)
(declare-fun l_1_3_8 () Real)
(declare-fun l_1_3_7 () Real)
(declare-fun l_1_3_5 () Real)
(declare-fun l_1_3_4 () Real)
(declare-fun l_1_3_3 () Real)
(declare-fun l_1_3_13 () Real)
(declare-fun l_1_3_12 () Real)
(declare-fun l_1_3_1 () Real)
(declare-fun l_1_3_9 () Real)
(declare-fun l_1_3_2 () Real)
(declare-fun l_1_3_10 () Real)
(declare-fun l_1_3_6 () Real)
(declare-fun l_1_3_11 () Real)
(declare-fun l_1_3_14 () Real)
(declare-fun l_1_3_15 () Real)
(declare-fun l_1_4_9 () Real)
(declare-fun l_1_4_7 () Real)
(declare-fun l_1_4_6 () Real)
(declare-fun l_1_4_5 () Real)
(declare-fun l_1_4_4 () Real)
(declare-fun l_1_4_3 () Real)
(declare-fun l_1_4_10 () Real)
(declare-fun l_1_4_14 () Real)
(declare-fun l_1_4_15 () Real)
(declare-fun l_1_4_1 () Real)
(declare-fun l_1_4_2 () Real)
(declare-fun l_1_4_11 () Real)
(declare-fun l_1_4_12 () Real)
(declare-fun l_1_4_8 () Real)
(declare-fun l_1_4_13 () Real)
(declare-fun l_1_4_16 () Real)
(declare-fun l_1_4_17 () Real)
(declare-fun l_1_5_9 () Real)
(declare-fun l_1_5_8 () Real)
(declare-fun l_1_5_7 () Real)
(declare-fun l_1_5_6 () Real)
(declare-fun l_1_5_5 () Real)
(declare-fun l_1_5_4 () Real)
(declare-fun l_1_5_3 () Real)
(declare-fun l_1_5_12 () Real)
(declare-fun l_1_5_11 () Real)
(declare-fun l_1_5_17 () Real)
(declare-fun l_1_5_16 () Real)
(declare-fun l_1_5_1 () Real)
(declare-fun l_1_5_2 () Real)
(declare-fun l_1_5_14 () Real)
(declare-fun l_1_5_13 () Real)
(declare-fun l_1_5_10 () Real)
(declare-fun l_1_5_15 () Real)
(declare-fun l_1_5_18 () Real)
(declare-fun l_1_5_19 () Real)
(assert
 (let ((?x36 (* (/ 2009.0 625.0) (* (+ _a_0_ (* 1.0 _a_1_)) (+ _a_0_ (* 1.0 _a_1_))))))
 (let ((?x39 (* l_1_0_8 l_1_0_8)))
 (let ((?x40 (* l_1_0_7 l_1_0_7)))
 (let ((?x293 (+ (- (- (- (- (* (- (/ 121.0 500.0)) l_1_0_3) l_1_0_4) l_1_0_5) ?x40) ?x39) ?x36)))
 (= (- ?x293 20.0) 0.0))))))
(assert
 (let ((?x210 (- (- (- l_1_0_1) (* (* 2.0 l_1_0_12) l_1_0_7)) (* (* 2.0 l_1_0_13) l_1_0_8))))
 (= ?x210 0.0)))
(assert
 (let ((?x177 (- (- (* (* (- 2.0) l_1_0_10) l_1_0_8) l_1_0_2) (* (* 2.0 l_1_0_7) l_1_0_9))))
 (= ?x177 0.0)))
(assert
 (= (- l_1_0_2 (* (* 2.0 l_1_0_6) l_1_0_7)) 0.0))
(assert
 (= (* (- l_1_0_6) l_1_0_6) 0.0))
(assert
 (= (* (* (- 2.0) l_1_0_6) l_1_0_9) 0.0))
(assert
 (= (* (* (- 2.0) l_1_0_12) l_1_0_6) 0.0))
(assert
 (let ((?x52 (* l_1_0_9 l_1_0_9)))
 (= (- (- (* (- l_1_0_10) l_1_0_10) (* l_1_0_11 l_1_0_11)) ?x52) 0.0)))
(assert
 (let ((?x201 (- (* (* (- 2.0) l_1_0_10) l_1_0_13) (* (* 2.0 l_1_0_11) l_1_0_14))))
 (= (- ?x201 (* (* 2.0 l_1_0_12) l_1_0_9)) 0.0)))
(assert
 (let ((?x301 (* l_1_0_15 l_1_0_15)))
 (let ((?x60 (* l_1_0_14 l_1_0_14)))
 (let ((?x302 (- (- (- (* (- l_1_0_12) l_1_0_12) (* l_1_0_13 l_1_0_13)) ?x60) ?x301)))
 (= ?x302 0.0)))))
(assert
 (>= l_1_0_1 0.0))
(assert
 (>= l_1_0_2 0.0))
(assert
 (>= l_1_0_3 0.0))
(assert
 (>= l_1_0_4 0.0))
(assert
 (>= l_1_0_5 0.0))
(assert
 (>= l_1_0_6 0.0))
(assert
 (>= l_1_0_8 0.0))
(assert
 (>= l_1_0_11 0.0))
(assert
 (>= l_1_0_15 0.0))
(assert
 (let ((?x295 (+ _a_0_ (* 1.0 _a_1_))))
 (let ((?x336 (* l_1_1_9 l_1_1_9)))
 (let ((?x333 (- (- (- (* (- l_1_1_10) l_1_1_10) (* (/ 121.0 500.0) l_1_1_3)) l_1_1_4) l_1_1_5)))
 (let ((?x340 (- (- (- (- ?x333 l_1_1_6) l_1_1_7) ?x336) (* (* (/ 2009.0 625.0) ?x295) ?x295))))
 (= (+ ?x340 20.0) 0.0))))))
(assert
 (let ((?x394 (- (- (- l_1_1_1) (* (* 2.0 l_1_1_10) l_1_1_15)) (* (* 2.0 l_1_1_14) l_1_1_9))))
 (= ?x394 0.0)))
(assert
 (let ((?x415 (- (* (* (- 2.0) l_1_1_10) l_1_1_12) (* (* 2.0 l_1_1_11) l_1_1_9))))
 (= (- ?x415 l_1_1_2) 0.0)))
(assert
 (= (- l_1_1_2 (* (* 2.0 l_1_1_8) l_1_1_9)) 0.0))
(assert
 (= (* (- l_1_1_8) l_1_1_8) 0.0))
(assert
 (= (* (* (- 2.0) l_1_1_11) l_1_1_8) 0.0))
(assert
 (= (* (* (- 2.0) l_1_1_14) l_1_1_8) 0.0))
(assert
 (let ((?x463 (* l_1_1_13 l_1_1_13)))
 (= (- (- (* (- l_1_1_11) l_1_1_11) (* l_1_1_12 l_1_1_12)) ?x463) 0.0)))
(assert
 (let ((?x480 (- (* (* (- 2.0) l_1_1_11) l_1_1_14) (* (* 2.0 l_1_1_12) l_1_1_15))))
 (= (- ?x480 (* (* 2.0 l_1_1_13) l_1_1_16)) 0.0)))
(assert
 (let ((?x508 (* l_1_1_17 l_1_1_17)))
 (let ((?x506 (* l_1_1_16 l_1_1_16)))
 (let ((?x509 (- (- (- (* (- l_1_1_14) l_1_1_14) (* l_1_1_15 l_1_1_15)) ?x506) ?x508)))
 (= ?x509 0.0)))))
(assert
 (>= l_1_1_1 0.0))
(assert
 (>= l_1_1_2 0.0))
(assert
 (>= l_1_1_3 0.0))
(assert
 (>= l_1_1_4 0.0))
(assert
 (>= l_1_1_5 0.0))
(assert
 (>= l_1_1_6 0.0))
(assert
 (>= l_1_1_7 0.0))
(assert
 (>= l_1_1_8 0.0))
(assert
 (>= l_1_1_10 0.0))
(assert
 (>= l_1_1_13 0.0))
(assert
 (>= l_1_1_17 0.0))
(assert
 (let ((?x540 (* (/ 121.0 500.0) l_1_2_3)))
 (let ((?x538 (* l_1_2_12 l_1_2_12)))
 (let ((?x541 (- (- (- (+ _a_0_ (* 1.0 _a_1_)) (* l_1_2_11 l_1_2_11)) ?x538) ?x540)))
 (let ((?x546 (- (- (- (- (- ?x541 l_1_2_4) l_1_2_5) l_1_2_6) l_1_2_7) l_1_2_8)))
 (= (- ?x546 l_1_2_9) 0.0))))))
(assert
 (let ((?x584 (- (- (- l_1_2_1) (* (* 2.0 l_1_2_11) l_1_2_16)) (* (* 2.0 l_1_2_12) l_1_2_17))))
 (= ?x584 0.0)))
(assert
 (let ((?x604 (- (* (* (- 2.0) l_1_2_11) l_1_2_13) (* (* 2.0 l_1_2_12) l_1_2_14))))
 (= (- ?x604 l_1_2_2) 0.0)))
(assert
 (= (+ (* (* (- 2.0) l_1_2_10) l_1_2_11) l_1_2_2) 0.0))
(assert
 (= (* (- l_1_2_10) l_1_2_10) 0.0))
(assert
 (= (* (* (- 2.0) l_1_2_10) l_1_2_13) 0.0))
(assert
 (= (* (* (- 2.0) l_1_2_10) l_1_2_16) 0.0))
(assert
 (let ((?x647 (* l_1_2_15 l_1_2_15)))
 (= (- (- (* (- l_1_2_13) l_1_2_13) (* l_1_2_14 l_1_2_14)) ?x647) 0.0)))
(assert
 (let ((?x665 (- (* (* (- 2.0) l_1_2_13) l_1_2_16) (* (* 2.0 l_1_2_14) l_1_2_17))))
 (= (- ?x665 (* (* 2.0 l_1_2_15) l_1_2_18)) 0.0)))
(assert
 (let ((?x693 (* l_1_2_19 l_1_2_19)))
 (let ((?x691 (* l_1_2_18 l_1_2_18)))
 (let ((?x694 (- (- (- (* (- l_1_2_16) l_1_2_16) (* l_1_2_17 l_1_2_17)) ?x691) ?x693)))
 (= ?x694 0.0)))))
(assert
 (>= l_1_2_1 0.0))
(assert
 (>= l_1_2_2 0.0))
(assert
 (>= l_1_2_3 0.0))
(assert
 (>= l_1_2_4 0.0))
(assert
 (>= l_1_2_5 0.0))
(assert
 (>= l_1_2_6 0.0))
(assert
 (>= l_1_2_7 0.0))
(assert
 (>= l_1_2_8 0.0))
(assert
 (>= l_1_2_9 0.0))
(assert
 (>= l_1_2_10 0.0))
(assert
 (>= l_1_2_12 0.0))
(assert
 (>= l_1_2_15 0.0))
(assert
 (>= l_1_2_19 0.0))
(assert
 (let ((?x728 (* l_1_3_8 l_1_3_8)))
 (let ((?x726 (* l_1_3_7 l_1_3_7)))
 (= (- (- (- (- (* (/ 121.0 500.0) l_1_3_3) l_1_3_4) l_1_3_5) ?x726) ?x728) 0.0))))
(assert
 (let ((?x751 (- (- (- l_1_3_1) (* (* 2.0 l_1_3_12) l_1_3_7)) (* (* 2.0 l_1_3_13) l_1_3_8))))
 (= ?x751 0.0)))
(assert
 (let ((?x773 (- (- (* (* (- 2.0) l_1_3_10) l_1_3_8) l_1_3_2) (* (* 2.0 l_1_3_7) l_1_3_9))))
 (= ?x773 0.0)))
(assert
 (= (- l_1_3_2 (* (* 2.0 l_1_3_6) l_1_3_7)) 0.0))
(assert
 (= (* (- l_1_3_6) l_1_3_6) 0.0))
(assert
 (= (* (* (- 2.0) l_1_3_6) l_1_3_9) 0.0))
(assert
 (= (* (* (- 2.0) l_1_3_12) l_1_3_6) 0.0))
(assert
 (let ((?x820 (* l_1_3_9 l_1_3_9)))
 (= (- (- (* (- l_1_3_10) l_1_3_10) (* l_1_3_11 l_1_3_11)) ?x820) 0.0)))
(assert
 (let ((?x837 (- (* (* (- 2.0) l_1_3_10) l_1_3_13) (* (* 2.0 l_1_3_11) l_1_3_14))))
 (= (- ?x837 (* (* 2.0 l_1_3_12) l_1_3_9)) 0.0)))
(assert
 (let ((?x864 (* l_1_3_15 l_1_3_15)))
 (let ((?x862 (* l_1_3_14 l_1_3_14)))
 (let ((?x865 (- (- (- (* (- l_1_3_12) l_1_3_12) (* l_1_3_13 l_1_3_13)) ?x862) ?x864)))
 (= ?x865 0.0)))))
(assert
 (>= l_1_3_1 0.0))
(assert
 (>= l_1_3_2 0.0))
(assert
 (>= l_1_3_3 0.0))
(assert
 (>= l_1_3_4 0.0))
(assert
 (>= l_1_3_5 0.0))
(assert
 (>= l_1_3_6 0.0))
(assert
 (>= l_1_3_8 0.0))
(assert
 (>= l_1_3_11 0.0))
(assert
 (>= l_1_3_15 0.0))
(assert
 (let ((?x898 (* l_1_4_9 l_1_4_9)))
 (let ((?x895 (- (- (+ (* (- l_1_4_10) l_1_4_10) (* (/ 121.0 500.0) l_1_4_3)) l_1_4_4) l_1_4_5)))
 (= (- (- (- ?x895 l_1_4_6) l_1_4_7) ?x898) 0.0))))
(assert
 (let ((?x929 (- (- (- l_1_4_1) (* (* 2.0 l_1_4_10) l_1_4_15)) (* (* 2.0 l_1_4_14) l_1_4_9))))
 (= ?x929 0.0)))
(assert
 (let ((?x950 (- (* (* (- 2.0) l_1_4_10) l_1_4_12) (* (* 2.0 l_1_4_11) l_1_4_9))))
 (= (- ?x950 l_1_4_2) 0.0)))
(assert
 (= (- l_1_4_2 (* (* 2.0 l_1_4_8) l_1_4_9)) 0.0))
(assert
 (= (* (- l_1_4_8) l_1_4_8) 0.0))
(assert
 (= (* (* (- 2.0) l_1_4_11) l_1_4_8) 0.0))
(assert
 (= (* (* (- 2.0) l_1_4_14) l_1_4_8) 0.0))
(assert
 (let ((?x998 (* l_1_4_13 l_1_4_13)))
 (= (- (- (* (- l_1_4_11) l_1_4_11) (* l_1_4_12 l_1_4_12)) ?x998) 0.0)))
(assert
 (let ((?x1015 (- (* (* (- 2.0) l_1_4_11) l_1_4_14) (* (* 2.0 l_1_4_12) l_1_4_15))))
 (= (- ?x1015 (* (* 2.0 l_1_4_13) l_1_4_16)) 0.0)))
(assert
 (let ((?x1043 (* l_1_4_17 l_1_4_17)))
 (let ((?x1041 (* l_1_4_16 l_1_4_16)))
 (let ((?x1044 (- (- (- (* (- l_1_4_14) l_1_4_14) (* l_1_4_15 l_1_4_15)) ?x1041) ?x1043)))
 (= ?x1044 0.0)))))
(assert
 (>= l_1_4_1 0.0))
(assert
 (>= l_1_4_2 0.0))
(assert
 (>= l_1_4_3 0.0))
(assert
 (>= l_1_4_4 0.0))
(assert
 (>= l_1_4_5 0.0))
(assert
 (>= l_1_4_6 0.0))
(assert
 (>= l_1_4_7 0.0))
(assert
 (>= l_1_4_8 0.0))
(assert
 (>= l_1_4_10 0.0))
(assert
 (>= l_1_4_13 0.0))
(assert
 (>= l_1_4_17 0.0))
(assert
 (let ((?x1075 (* (/ 121.0 500.0) l_1_5_3)))
 (let ((?x1076 (+ (- (- _a_0_ (* l_1_5_11 l_1_5_11)) (* l_1_5_12 l_1_5_12)) ?x1075)))
 (let ((?x1081 (- (- (- (- (- ?x1076 l_1_5_4) l_1_5_5) l_1_5_6) l_1_5_7) l_1_5_8)))
 (= (- ?x1081 l_1_5_9) 0.0)))))
(assert
 (let ((?x1115 (- (- (- l_1_5_1) (* (* 2.0 l_1_5_11) l_1_5_16)) (* (* 2.0 l_1_5_12) l_1_5_17))))
 (= ?x1115 0.0)))
(assert
 (let ((?x1135 (- (* (* (- 2.0) l_1_5_11) l_1_5_13) (* (* 2.0 l_1_5_12) l_1_5_14))))
 (= (- ?x1135 l_1_5_2) 0.0)))
(assert
 (= (+ (* (* (- 2.0) l_1_5_10) l_1_5_11) l_1_5_2) 0.0))
(assert
 (= (* (- l_1_5_10) l_1_5_10) 0.0))
(assert
 (= (* (* (- 2.0) l_1_5_10) l_1_5_13) 0.0))
(assert
 (= (* (* (- 2.0) l_1_5_10) l_1_5_16) 0.0))
(assert
 (let ((?x1178 (* l_1_5_15 l_1_5_15)))
 (= (- (- (* (- l_1_5_13) l_1_5_13) (* l_1_5_14 l_1_5_14)) ?x1178) 0.0)))
(assert
 (let ((?x1196 (- (* (* (- 2.0) l_1_5_13) l_1_5_16) (* (* 2.0 l_1_5_14) l_1_5_17))))
 (= (- ?x1196 (* (* 2.0 l_1_5_15) l_1_5_18)) 0.0)))
(assert
 (let ((?x1224 (* l_1_5_19 l_1_5_19)))
 (let ((?x1222 (* l_1_5_18 l_1_5_18)))
 (let ((?x1225 (- (- (- (* (- l_1_5_16) l_1_5_16) (* l_1_5_17 l_1_5_17)) ?x1222) ?x1224)))
 (= ?x1225 0.0)))))
(assert
 (>= l_1_5_1 0.0))
(assert
 (>= l_1_5_2 0.0))
(assert
 (>= l_1_5_3 0.0))
(assert
 (>= l_1_5_4 0.0))
(assert
 (>= l_1_5_5 0.0))
(assert
 (>= l_1_5_6 0.0))
(assert
 (>= l_1_5_7 0.0))
(assert
 (>= l_1_5_8 0.0))
(assert
 (>= l_1_5_9 0.0))
(assert
 (>= l_1_5_10 0.0))
(assert
 (>= l_1_5_12 0.0))
(assert
 (>= l_1_5_15 0.0))
(assert
 (>= l_1_5_19 0.0))
(check-sat)
(get-model)